c colouring generated by benchmark framework
p edge 450 8260
v 1 3
v 2 20
v 3 19
v 4 1
v 5 4
v 6 23
v 7 20
v 8 8
v 9 9
v 10 11
v 11 4
v 12 10
v 13 1
v 14 4
v 15 15
v 16 17
v 17 3
v 18 23
v 19 7
v 20 20
v 21 9
v 22 24
v 23 17
v 24 15
v 25 10
v 26 8
v 27 1
v 28 1
v 29 4
v 30 6
v 31 10
v 32 9
v 33 16
v 34 10
v 35 20
v 36 23
v 37 1
v 38 9
v 39 20
v 40 24
v 41 0
v 42 0
v 43 18
v 44 17
v 45 19
v 46 9
v 47 11
v 48 5
v 49 3
v 50 8
v 51 2
v 52 6
v 53 12
v 54 3
v 55 11
v 56 0
v 57 17
v 58 6
v 59 7
v 60 6
v 61 19
v 62 17
v 63 10
v 64 12
v 65 16
v 66 5
v 67 1
v 68 13
v 69 11
v 70 19
v 71 11
v 72 18
v 73 9
v 74 6
v 75 3
v 76 9
v 77 9
v 78 0
v 79 3
v 80 5
v 81 13
v 82 3
v 83 24
v 84 15
v 85 15
v 86 2
v 87 0
v 88 13
v 89 8
v 90 16
v 91 12
v 92 9
v 93 3
v 94 10
v 95 5
v 96 17
v 97 4
v 98 18
v 99 13
v 100 21
v 101 1
v 102 12
v 103 14
v 104 5
v 105 17
v 106 9
v 107 11
v 108 1
v 109 1
v 110 24
v 111 6
v 112 6
v 113 3
v 114 13
v 115 1
v 116 11
v 117 21
v 118 1
v 119 22
v 120 11
v 121 3
v 122 3
v 123 24
v 124 20
v 125 9
v 126 11
v 127 2
v 128 8
v 129 13
v 130 0
v 131 18
v 132 22
v 133 5
v 134 14
v 135 17
v 136 1
v 137 11
v 138 2
v 139 1
v 140 8
v 141 10
v 142 12
v 143 21
v 144 12
v 145 16
v 146 24
v 147 12
v 148 11
v 149 21
v 150 10
v 151 23
v 152 19
v 153 10
v 154 0
v 155 18
v 156 5
v 157 3
v 158 5
v 159 22
v 160 17
v 161 7
v 162 0
v 163 14
v 164 20
v 165 17
v 166 23
v 167 24
v 168 2
v 169 20
v 170 0
v 171 17
v 172 22
v 173 2
v 174 6
v 175 7
v 176 19
v 177 12
v 178 23
v 179 23
v 180 18
v 181 0
v 182 2
v 183 14
v 184 0
v 185 0
v 186 15
v 187 11
v 188 8
v 189 8
v 190 23
v 191 12
v 192 18
v 193 16
v 194 16
v 195 14
v 196 16
v 197 11
v 198 16
v 199 21
v 200 14
v 201 12
v 202 11
v 203 23
v 204 21
v 205 7
v 206 24
v 207 3
v 208 7
v 209 4
v 210 2
v 211 20
v 212 1
v 213 3
v 214 8
v 215 22
v 216 15
v 217 4
v 218 24
v 219 23
v 220 23
v 221 24
v 222 2
v 223 8
v 224 2
v 225 12
v 226 1
v 227 4
v 228 19
v 229 17
v 230 4
v 231 9
v 232 1
v 233 1
v 234 22
v 235 22
v 236 19
v 237 3
v 238 18
v 239 14
v 240 0
v 241 4
v 242 9
v 243 0
v 244 3
v 245 15
v 246 13
v 247 12
v 248 23
v 249 4
v 250 17
v 251 5
v 252 7
v 253 7
v 254 5
v 255 0
v 256 7
v 257 3
v 258 7
v 259 7
v 260 2
v 261 17
v 262 2
v 263 3
v 264 9
v 265 21
v 266 7
v 267 9
v 268 1
v 269 7
v 270 8
v 271 12
v 272 13
v 273 4
v 274 0
v 275 11
v 276 10
v 277 22
v 278 0
v 279 0
v 280 15
v 281 2
v 282 5
v 283 6
v 284 12
v 285 23
v 286 22
v 287 2
v 288 4
v 289 3
v 290 14
v 291 6
v 292 22
v 293 13
v 294 20
v 295 19
v 296 10
v 297 7
v 298 0
v 299 2
v 300 0
v 301 23
v 302 20
v 303 23
v 304 22
v 305 0
v 306 24
v 307 8
v 308 10
v 309 22
v 310 15
v 311 19
v 312 7
v 313 21
v 314 20
v 315 15
v 316 5
v 317 16
v 318 19
v 319 9
v 320 10
v 321 2
v 322 0
v 323 0
v 324 22
v 325 1
v 326 8
v 327 23
v 328 5
v 329 12
v 330 9
v 331 0
v 332 24
v 333 18
v 334 13
v 335 7
v 336 8
v 337 5
v 338 19
v 339 6
v 340 12
v 341 2
v 342 21
v 343 4
v 344 14
v 345 5
v 346 0
v 347 22
v 348 23
v 349 11
v 350 7
v 351 14
v 352 19
v 353 16
v 354 7
v 355 5
v 356 15
v 357 20
v 358 1
v 359 17
v 360 2
v 361 21
v 362 24
v 363 8
v 364 4
v 365 18
v 366 22
v 367 21
v 368 15
v 369 12
v 370 2
v 371 23
v 372 11
v 373 0
v 374 16
v 375 18
v 376 17
v 377 24
v 378 15
v 379 2
v 380 16
v 381 22
v 382 0
v 383 13
v 384 23
v 385 10
v 386 0
v 387 1
v 388 7
v 389 17
v 390 5
v 391 9
v 392 2
v 393 1
v 394 0
v 395 1
v 396 0
v 397 20
v 398 14
v 399 16
v 400 13
v 401 18
v 402 6
v 403 14
v 404 1
v 405 4
v 406 9
v 407 22
v 408 1
v 409 16
v 410 8
v 411 13
v 412 14
v 413 20
v 414 7
v 415 18
v 416 10
v 417 0
v 418 19
v 419 21
v 420 4
v 421 0
v 422 0
v 423 9
v 424 15
v 425 23
v 426 10
v 427 5
v 428 6
v 429 11
v 430 11
v 431 2
v 432 10
v 433 14
v 434 12
v 435 4
v 436 6
v 437 6
v 438 18
v 439 16
v 440 21
v 441 5
v 442 13
v 443 20
v 444 18
v 445 6
v 446 9
v 447 0
v 448 0
v 449 2
v 450 4
